302 10
2 2 2 2 2 2 2 2 2 2
0  0 0 0 0 0 0 0 0 0 0  30 2 12 22 32 42 52 62 72 82 92 102 112 122 132 142 152 162 172 182 192 202 212 222 232 242 252 262 272 282 292
34  0 0 1 0 0 0 0 0 0 0  1 3
55  0 0 0 1 0 0 0 0 0 0  1 4
95  0 0 0 0 0 1 0 0 0 0  1 5
16  0 0 0 0 0 0 0 0 0 1  1 6
21  0 0 0 0 1 0 0 0 0 0  1 7
71  0 0 0 0 0 0 1 0 0 0  1 8
53  1 0 0 0 0 0 0 0 0 0  1 9
52  0 0 0 0 0 0 0 0 1 0  1 10
21  0 1 0 0 0 0 0 0 0 0  1 11
26  0 0 0 0 0 0 0 1 0 0  1 302
39  0 0 0 1 0 0 0 0 0 0  1 13
31  0 0 1 0 0 0 0 0 0 0  1 14
12  1 0 0 0 0 0 0 0 0 0  1 15
42  0 1 0 0 0 0 0 0 0 0  1 16
79  0 0 0 0 0 0 0 0 0 1  1 17
77  0 0 0 0 0 0 0 0 1 0  1 18
77  0 0 0 0 0 0 1 0 0 0  1 19
98  0 0 0 0 0 1 0 0 0 0  1 20
55  0 0 0 0 1 0 0 0 0 0  1 21
66  0 0 0 0 0 0 0 1 0 0  1 302
19  0 1 0 0 0 0 0 0 0 0  1 23
83  1 0 0 0 0 0 0 0 0 0  1 24
34  0 0 0 1 0 0 0 0 0 0  1 25
92  0 0 0 0 1 0 0 0 0 0  1 26
54  0 0 0 0 0 0 1 0 0 0  1 27
79  0 0 0 0 0 0 0 0 0 1  1 28
62  0 0 0 0 0 0 0 0 1 0  1 29
37  0 0 0 0 0 1 0 0 0 0  1 30
64  0 0 1 0 0 0 0 0 0 0  1 31
43  0 0 0 0 0 0 0 1 0 0  1 302
60  0 0 0 0 1 0 0 0 0 0  1 33
87  0 0 1 0 0 0 0 0 0 0  1 34
24  0 0 0 0 0 0 0 0 1 0  1 35
77  0 0 0 0 0 1 0 0 0 0  1 36
69  0 0 0 1 0 0 0 0 0 0  1 37
38  0 0 0 0 0 0 0 1 0 0  1 38
87  0 1 0 0 0 0 0 0 0 0  1 39
41  0 0 0 0 0 0 1 0 0 0  1 40
83  0 0 0 0 0 0 0 0 0 1  1 41
93  1 0 0 0 0 0 0 0 0 0  1 302
79  0 0 0 0 0 0 0 0 1 0  1 43
77  0 0 0 0 0 0 0 0 0 1  1 44
98  0 0 1 0 0 0 0 0 0 0  1 45
96  0 0 0 0 1 0 0 0 0 0  1 46
17  0 0 0 1 0 0 0 0 0 0  1 47
44  1 0 0 0 0 0 0 0 0 0  1 48
43  0 0 0 0 0 0 0 1 0 0  1 49
75  0 0 0 0 0 0 1 0 0 0  1 50
49  0 1 0 0 0 0 0 0 0 0  1 51
25  0 0 0 0 0 1 0 0 0 0  1 302
35  0 0 0 0 0 0 0 0 1 0  1 53
95  0 0 0 0 0 0 0 1 0 0  1 54
9  0 0 0 0 0 0 1 0 0 0  1 55
10  0 0 0 0 0 0 0 0 0 1  1 56
35  0 0 1 0 0 0 0 0 0 0  1 57
7  0 1 0 0 0 0 0 0 0 0  1 58
28  0 0 0 0 0 1 0 0 0 0  1 59
61  0 0 0 0 1 0 0 0 0 0  1 60
95  1 0 0 0 0 0 0 0 0 0  1 61
76  0 0 0 1 0 0 0 0 0 0  1 302
28  0 0 0 0 1 0 0 0 0 0  1 63
59  0 0 0 0 0 1 0 0 0 0  1 64
16  0 0 0 1 0 0 0 0 0 0  1 65
43  0 0 0 0 0 0 0 0 0 1  1 66
46  1 0 0 0 0 0 0 0 0 0  1 67
50  0 0 0 0 0 0 0 0 1 0  1 68
52  0 0 0 0 0 0 1 0 0 0  1 69
27  0 0 0 0 0 0 0 1 0 0  1 70
59  0 0 1 0 0 0 0 0 0 0  1 71
91  0 1 0 0 0 0 0 0 0 0  1 302
9  0 0 0 0 0 1 0 0 0 0  1 73
20  0 0 0 0 1 0 0 0 0 0  1 74
39  0 0 1 0 0 0 0 0 0 0  1 75
54  0 0 0 0 0 0 1 0 0 0  1 76
45  0 1 0 0 0 0 0 0 0 0  1 77
71  0 0 0 0 0 0 0 1 0 0  1 78
87  1 0 0 0 0 0 0 0 0 0  1 79
41  0 0 0 1 0 0 0 0 0 0  1 80
43  0 0 0 0 0 0 0 0 0 1  1 81
14  0 0 0 0 0 0 0 0 1 0  1 302
28  0 1 0 0 0 0 0 0 0 0  1 83
33  0 0 0 0 0 1 0 0 0 0  1 84
78  1 0 0 0 0 0 0 0 0 0  1 85
26  0 0 0 1 0 0 0 0 0 0  1 86
37  0 0 1 0 0 0 0 0 0 0  1 87
8  0 0 0 0 0 0 0 1 0 0  1 88
66  0 0 0 0 0 0 0 0 1 0  1 89
89  0 0 0 0 0 0 1 0 0 0  1 90
42  0 0 0 0 0 0 0 0 0 1  1 91
33  0 0 0 0 1 0 0 0 0 0  1 302
94  0 0 1 0 0 0 0 0 0 0  1 93
84  0 0 0 0 0 1 0 0 0 0  1 94
78  0 0 0 0 0 0 1 0 0 0  1 95
81  0 0 0 0 0 0 0 0 0 1  1 96
74  0 1 0 0 0 0 0 0 0 0  1 97
27  0 0 0 1 0 0 0 0 0 0  1 98
69  0 0 0 0 0 0 0 0 1 0  1 99
69  1 0 0 0 0 0 0 0 0 0  1 100
45  0 0 0 0 0 0 0 1 0 0  1 101
96  0 0 0 0 1 0 0 0 0 0  1 302
31  0 1 0 0 0 0 0 0 0 0  1 103
24  0 0 0 0 1 0 0 0 0 0  1 104
20  1 0 0 0 0 0 0 0 0 0  1 105
17  0 0 1 0 0 0 0 0 0 0  1 106
25  0 0 0 0 0 0 0 0 0 1  1 107
81  0 0 0 0 0 0 0 0 1 0  1 108
76  0 0 0 0 0 1 0 0 0 0  1 109
87  0 0 0 1 0 0 0 0 0 0  1 110
32  0 0 0 0 0 0 0 1 0 0  1 111
18  0 0 0 0 0 0 1 0 0 0  1 302
28  0 0 0 0 0 1 0 0 0 0  1 113
97  0 0 0 0 0 0 0 0 0 1  1 114
58  1 0 0 0 0 0 0 0 0 0  1 115
45  0 0 0 0 1 0 0 0 0 0  1 116
76  0 0 0 0 0 0 1 0 0 0  1 117
99  0 0 0 1 0 0 0 0 0 0  1 118
23  0 0 1 0 0 0 0 0 0 0  1 119
72  0 1 0 0 0 0 0 0 0 0  1 120
90  0 0 0 0 0 0 0 0 1 0  1 121
86  0 0 0 0 0 0 0 1 0 0  1 302
27  0 0 0 0 0 1 0 0 0 0  1 123
48  0 0 0 0 0 0 0 0 0 1  1 124
27  0 0 0 0 0 0 0 0 1 0  1 125
62  0 0 0 0 0 0 0 1 0 0  1 126
98  0 0 0 0 1 0 0 0 0 0  1 127
67  0 0 0 0 0 0 1 0 0 0  1 128
48  0 0 0 1 0 0 0 0 0 0  1 129
42  1 0 0 0 0 0 0 0 0 0  1 130
46  0 1 0 0 0 0 0 0 0 0  1 131
17  0 0 1 0 0 0 0 0 0 0  1 302
12  0 1 0 0 0 0 0 0 0 0  1 133
50  0 0 0 0 0 0 0 0 1 0  1 134
80  1 0 0 0 0 0 0 0 0 0  1 135
50  0 0 1 0 0 0 0 0 0 0  1 136
80  0 0 0 0 0 0 0 0 0 1  1 137
19  0 0 0 1 0 0 0 0 0 0  1 138
28  0 0 0 0 0 1 0 0 0 0  1 139
63  0 0 0 0 0 0 1 0 0 0  1 140
94  0 0 0 0 1 0 0 0 0 0  1 141
98  0 0 0 0 0 0 0 1 0 0  1 302
61  0 0 0 0 1 0 0 0 0 0  1 143
55  0 0 0 1 0 0 0 0 0 0  1 144
37  0 0 0 0 0 0 1 0 0 0  1 145
14  0 0 0 0 0 1 0 0 0 0  1 146
50  0 0 1 0 0 0 0 0 0 0  1 147
79  0 0 0 0 0 0 0 0 1 0  1 148
41  0 1 0 0 0 0 0 0 0 0  1 149
72  0 0 0 0 0 0 0 0 0 1  1 150
18  0 0 0 0 0 0 0 1 0 0  1 151
75  1 0 0 0 0 0 0 0 0 0  1 302
34  0 0 1 0 0 0 0 0 0 0  1 153
55  0 0 0 1 0 0 0 0 0 0  1 154
95  0 0 0 0 0 1 0 0 0 0  1 155
16  0 0 0 0 0 0 0 0 0 1  1 156
21  0 0 0 0 1 0 0 0 0 0  1 157
71  0 0 0 0 0 0 1 0 0 0  1 158
53  1 0 0 0 0 0 0 0 0 0  1 159
52  0 0 0 0 0 0 0 0 1 0  1 160
21  0 1 0 0 0 0 0 0 0 0  1 161
26  0 0 0 0 0 0 0 1 0 0  1 302
39  0 0 0 1 0 0 0 0 0 0  1 163
31  0 0 1 0 0 0 0 0 0 0  1 164
12  1 0 0 0 0 0 0 0 0 0  1 165
42  0 1 0 0 0 0 0 0 0 0  1 166
79  0 0 0 0 0 0 0 0 0 1  1 167
77  0 0 0 0 0 0 0 0 1 0  1 168
77  0 0 0 0 0 0 1 0 0 0  1 169
98  0 0 0 0 0 1 0 0 0 0  1 170
55  0 0 0 0 1 0 0 0 0 0  1 171
66  0 0 0 0 0 0 0 1 0 0  1 302
19  0 1 0 0 0 0 0 0 0 0  1 173
83  1 0 0 0 0 0 0 0 0 0  1 174
34  0 0 0 1 0 0 0 0 0 0  1 175
92  0 0 0 0 1 0 0 0 0 0  1 176
54  0 0 0 0 0 0 1 0 0 0  1 177
79  0 0 0 0 0 0 0 0 0 1  1 178
62  0 0 0 0 0 0 0 0 1 0  1 179
37  0 0 0 0 0 1 0 0 0 0  1 180
64  0 0 1 0 0 0 0 0 0 0  1 181
43  0 0 0 0 0 0 0 1 0 0  1 302
60  0 0 0 0 1 0 0 0 0 0  1 183
87  0 0 1 0 0 0 0 0 0 0  1 184
24  0 0 0 0 0 0 0 0 1 0  1 185
77  0 0 0 0 0 1 0 0 0 0  1 186
69  0 0 0 1 0 0 0 0 0 0  1 187
38  0 0 0 0 0 0 0 1 0 0  1 188
87  0 1 0 0 0 0 0 0 0 0  1 189
41  0 0 0 0 0 0 1 0 0 0  1 190
83  0 0 0 0 0 0 0 0 0 1  1 191
93  1 0 0 0 0 0 0 0 0 0  1 302
79  0 0 0 0 0 0 0 0 1 0  1 193
77  0 0 0 0 0 0 0 0 0 1  1 194
98  0 0 1 0 0 0 0 0 0 0  1 195
96  0 0 0 0 1 0 0 0 0 0  1 196
17  0 0 0 1 0 0 0 0 0 0  1 197
44  1 0 0 0 0 0 0 0 0 0  1 198
43  0 0 0 0 0 0 0 1 0 0  1 199
75  0 0 0 0 0 0 1 0 0 0  1 200
49  0 1 0 0 0 0 0 0 0 0  1 201
25  0 0 0 0 0 1 0 0 0 0  1 302
35  0 0 0 0 0 0 0 0 1 0  1 203
95  0 0 0 0 0 0 0 1 0 0  1 204
9  0 0 0 0 0 0 1 0 0 0  1 205
10  0 0 0 0 0 0 0 0 0 1  1 206
35  0 0 1 0 0 0 0 0 0 0  1 207
7  0 1 0 0 0 0 0 0 0 0  1 208
28  0 0 0 0 0 1 0 0 0 0  1 209
61  0 0 0 0 1 0 0 0 0 0  1 210
95  1 0 0 0 0 0 0 0 0 0  1 211
76  0 0 0 1 0 0 0 0 0 0  1 302
28  0 0 0 0 1 0 0 0 0 0  1 213
59  0 0 0 0 0 1 0 0 0 0  1 214
16  0 0 0 1 0 0 0 0 0 0  1 215
43  0 0 0 0 0 0 0 0 0 1  1 216
46  1 0 0 0 0 0 0 0 0 0  1 217
50  0 0 0 0 0 0 0 0 1 0  1 218
52  0 0 0 0 0 0 1 0 0 0  1 219
27  0 0 0 0 0 0 0 1 0 0  1 220
59  0 0 1 0 0 0 0 0 0 0  1 221
91  0 1 0 0 0 0 0 0 0 0  1 302
9  0 0 0 0 0 1 0 0 0 0  1 223
20  0 0 0 0 1 0 0 0 0 0  1 224
39  0 0 1 0 0 0 0 0 0 0  1 225
54  0 0 0 0 0 0 1 0 0 0  1 226
45  0 1 0 0 0 0 0 0 0 0  1 227
71  0 0 0 0 0 0 0 1 0 0  1 228
87  1 0 0 0 0 0 0 0 0 0  1 229
41  0 0 0 1 0 0 0 0 0 0  1 230
43  0 0 0 0 0 0 0 0 0 1  1 231
14  0 0 0 0 0 0 0 0 1 0  1 302
28  0 1 0 0 0 0 0 0 0 0  1 233
33  0 0 0 0 0 1 0 0 0 0  1 234
78  1 0 0 0 0 0 0 0 0 0  1 235
26  0 0 0 1 0 0 0 0 0 0  1 236
37  0 0 1 0 0 0 0 0 0 0  1 237
8  0 0 0 0 0 0 0 1 0 0  1 238
66  0 0 0 0 0 0 0 0 1 0  1 239
89  0 0 0 0 0 0 1 0 0 0  1 240
42  0 0 0 0 0 0 0 0 0 1  1 241
33  0 0 0 0 1 0 0 0 0 0  1 302
94  0 0 1 0 0 0 0 0 0 0  1 243
84  0 0 0 0 0 1 0 0 0 0  1 244
78  0 0 0 0 0 0 1 0 0 0  1 245
81  0 0 0 0 0 0 0 0 0 1  1 246
74  0 1 0 0 0 0 0 0 0 0  1 247
27  0 0 0 1 0 0 0 0 0 0  1 248
69  0 0 0 0 0 0 0 0 1 0  1 249
69  1 0 0 0 0 0 0 0 0 0  1 250
45  0 0 0 0 0 0 0 1 0 0  1 251
96  0 0 0 0 1 0 0 0 0 0  1 302
31  0 1 0 0 0 0 0 0 0 0  1 253
24  0 0 0 0 1 0 0 0 0 0  1 254
20  1 0 0 0 0 0 0 0 0 0  1 255
17  0 0 1 0 0 0 0 0 0 0  1 256
25  0 0 0 0 0 0 0 0 0 1  1 257
81  0 0 0 0 0 0 0 0 1 0  1 258
76  0 0 0 0 0 1 0 0 0 0  1 259
87  0 0 0 1 0 0 0 0 0 0  1 260
32  0 0 0 0 0 0 0 1 0 0  1 261
18  0 0 0 0 0 0 1 0 0 0  1 302
28  0 0 0 0 0 1 0 0 0 0  1 263
97  0 0 0 0 0 0 0 0 0 1  1 264
58  1 0 0 0 0 0 0 0 0 0  1 265
45  0 0 0 0 1 0 0 0 0 0  1 266
76  0 0 0 0 0 0 1 0 0 0  1 267
99  0 0 0 1 0 0 0 0 0 0  1 268
23  0 0 1 0 0 0 0 0 0 0  1 269
72  0 1 0 0 0 0 0 0 0 0  1 270
90  0 0 0 0 0 0 0 0 1 0  1 271
86  0 0 0 0 0 0 0 1 0 0  1 302
27  0 0 0 0 0 1 0 0 0 0  1 273
48  0 0 0 0 0 0 0 0 0 1  1 274
27  0 0 0 0 0 0 0 0 1 0  1 275
62  0 0 0 0 0 0 0 1 0 0  1 276
98  0 0 0 0 1 0 0 0 0 0  1 277
67  0 0 0 0 0 0 1 0 0 0  1 278
48  0 0 0 1 0 0 0 0 0 0  1 279
42  1 0 0 0 0 0 0 0 0 0  1 280
46  0 1 0 0 0 0 0 0 0 0  1 281
17  0 0 1 0 0 0 0 0 0 0  1 302
12  0 1 0 0 0 0 0 0 0 0  1 283
50  0 0 0 0 0 0 0 0 1 0  1 284
80  1 0 0 0 0 0 0 0 0 0  1 285
50  0 0 1 0 0 0 0 0 0 0  1 286
80  0 0 0 0 0 0 0 0 0 1  1 287
19  0 0 0 1 0 0 0 0 0 0  1 288
28  0 0 0 0 0 1 0 0 0 0  1 289
63  0 0 0 0 0 0 1 0 0 0  1 290
94  0 0 0 0 1 0 0 0 0 0  1 291
98  0 0 0 0 0 0 0 1 0 0  1 302
61  0 0 0 0 1 0 0 0 0 0  1 293
55  0 0 0 1 0 0 0 0 0 0  1 294
37  0 0 0 0 0 0 1 0 0 0  1 295
14  0 0 0 0 0 1 0 0 0 0  1 296
50  0 0 1 0 0 0 0 0 0 0  1 297
79  0 0 0 0 0 0 0 0 1 0  1 298
41  0 1 0 0 0 0 0 0 0 0  1 299
72  0 0 0 0 0 0 0 0 0 1  1 300
18  0 0 0 0 0 0 0 1 0 0  1 301
75  1 0 0 0 0 0 0 0 0 0  1 302
0  0 0 0 0 0 0 0 0 0 0  0
